
Gurobi 12.0.2 (win64) logging started Wed Nov 26 15:45:01 2025

Set parameter LogFile to value "resultados DATA_1_n100m10b2d2\instancia_10_log.txt"
Set parameter TimeLimit to value 3600
Gurobi Optimizer version 12.0.2 build v12.0.2rc0 (win64 - Windows 10.0 (19045.2))

CPU model: Intel(R) Core(TM) i5-6300U CPU @ 2.40GHz, instruction set [SSE2|AVX|AVX2]
Thread count: 2 physical cores, 4 logical processors, using up to 4 threads

Non-default parameters:
TimeLimit  3600

Optimize a model with 3325 rows, 3494 columns and 2178877 nonzeros
Model fingerprint: 0xf33ae8fa
Variable types: 0 continuous, 3494 integer (3494 binary)
Coefficient statistics:
  Matrix range     [1e+00, 1e+00]
  Objective range  [5e-02, 3e-01]
  Bounds range     [1e+00, 1e+00]
  RHS range        [1e+00, 1e+01]
Found heuristic solution: objective 0.6683330
Presolve removed 85 rows and 3188 columns
Presolve time: 1.74s
Presolved: 3240 rows, 306 columns, 137379 nonzeros
Found heuristic solution: objective 0.4113550
Variable types: 0 continuous, 306 integer (306 binary)

Root relaxation: objective 9.245940e-01, 421 iterations, 0.16 seconds (0.10 work units)

    Nodes    |    Current Node    |     Objective Bounds      |     Work
 Expl Unexpl |  Obj  Depth IntInf | Incumbent    BestBd   Gap | It/Node Time

     0     0    0.92459    0   32    0.66833    0.92459  38.3%     -    2s
H    0     0                       0.7854240    0.92459  17.7%     -    2s
H    0     0                       0.8088110    0.92459  14.3%     -    2s
H    0     0                       0.8855880    0.92459  4.40%     -    2s
H    0     0                       0.9003720    0.92459  2.69%     -    2s
H    0     0                       0.9108840    0.92459  1.51%     -    2s
     0     0    0.91515    0   49    0.91088    0.91515  0.47%     -    3s

Cutting planes:
  Gomory: 4

Explored 1 nodes (680 simplex iterations) in 3.25 seconds (2.02 work units)
Thread count was 4 (of 4 available processors)

Solution count 7: 0.910884 0.900372 0.885588 ... 0.411355
No other solutions better than 0.910884

Optimal solution found (tolerance 1.00e-04)
Best objective 9.108840000000e-01, best bound 9.108840000000e-01, gap 0.0000%
